open_stacks/wbp_30_30_1.sol
objective = 6;
s = [4, 11, 5, 6, 8, 13, 20, 23, 26, 28, 15, 10, 30, 18, 25, 14, 2, 24, 12, 17, 1, 19, 16, 7, 3, 27, 29, 22, 9, 21];
